NAME: binpacking2d-11.bp2d
COMMENT: gcut11
NB_ITEMS: 30
BIN_WIDTH: 1000
BIN_HEIGHT: 1000

ITEMS [id width height]:
1 541 745
2 344 301
3 413 294
4 266 341
5 543 388
6 367 701
7 526 707
8 286 706
9 614 289
10 348 592
11 673 431
12 475 362
13 562 439
14 530 638
15 609 375
16 540 274
17 486 634
18 272 377
19 623 306
20 266 714
21 341 336
22 340 296
23 531 479
24 571 589
25 674 496
26 560 497
27 509 389
28 650 332
29 474 285
30 419 503